c --- [ banner ] -------------------------------------------------------------
c 
c CaDiCaL Radically Simplified CDCL SAT Solver
c Copyright (c) 2016-2021 A. Biere, M. Fleury, N. Froleyks
c 
c Version 1.5.2 9c38a080b32c28d805e8e6ca21849856b0cda605
c g++ (Ubuntu 7.5.0-3ubuntu1~18.04) 7.5.0 -Wall -Wextra -O3 -DNDEBUG
c Wed Feb 16 23:15:36 EST 2022 Linux fac-vanhoeve01 5.4.0-99-generic x86_64
c 
c --- [ limit ] --------------------------------------------------------------
c 
c setting time limit to 600 seconds real time (due to '-t 600')
c setting conflict limit to 1000000000 conflicts (due to '1000000000')
c 
c --- [ parsing input ] ------------------------------------------------------
c 
c reading DIMACS file from 'ddfwcnfs/wap07a.col_40.cnf'
c opening file to read 'ddfwcnfs/wap07a.col_40.cnf'
c found 'p cnf 72360 3903769' header
c parsed 3903769 clauses in 2.31 seconds process time
c closing file 'ddfwcnfs/wap07a.col_40.cnf'
c after reading 62064102 bytes 59.2 MB
c 
c --- [ options ] ------------------------------------------------------------
c 
c all options are set to their default value
c 
c --- [ solving ] ------------------------------------------------------------
c 
c time measured in process time since initialization
c 
c  seconds   reductions  redundant   irredundant
c          MB    restarts       trail        variables
c           level   conflicts       glue          remaining
c 
c *  2.31 337  0 0   0    0    0  0% 0 3897796 70437 97%
c {  2.34 339  0 0   0    0    0  0% 0 3897796 70437 97%
c -  3.21 339 36 1   9  300  237 13% 25 3864379 70437 97%
c }  3.41 339 34 1  57 1001  621 12% 28 3864379 70437 97%
c [  3.41 339  0 1  57 1001  621  0% 0 3864379 70437 97%
c O  3.41 339 38 1  57 1002  622  4% 38 3864379 70437 97%
c -  5.82 427 41 2  57 1852  863  5% 38 3864379 70437 97%
c ]  5.92 427 45 2  58 3003 1804  5% 41 3864379 70437 97%
c {  5.92 427 34 2  58 3003 1804 12% 28 3864379 70437 97%
c F  5.93 427 34 2  58 3004 1805 12% 28 3864379 70437 97%
c -  7.63 428 69 3 337 4180 1618 12% 32 3864379 70437 97%
c # 11.66 426 55 3 561 6005 2370 12% 34 3864379 70437 97%
c } 11.81 426 53 3 578 7003 3006 12% 35 3864379 70437 97%
c [ 11.81 426 45 3 578 7003 3006  5% 41 3864379 70437 97%
c - 13.57 426 47 4 579 7284 2028  5% 41 3864379 70437 97%
c I 13.84 426 54 4 580 10007 3956  5% 41 3864379 70437 97%
c - 15.72 426 586 5 581 11164 3340  8% 40 3864379 70437 97%
c s 17.48 441 911 5 582 11581 3519 10% 42 3864379 70437 97%
c e 26.26 441 911 5 582 11581  421 10% 42 3268041 64185 89%
c s 27.89 463 911 5 582 11581  420 10% 42 3268041 64185 89%
c 
c  seconds    reductions   redundant    irredundant
c          MB     restarts        trail         variables
c            level    conflicts       glue           remaining
c 
c ^ 28.84 463 911 5 582 11581  420 10% 42 3268041 64185 89%
c ] 35.90 451 960 5 583 15003 3198 38% 53 3268041 64185 89%
c { 35.90 451 53 5 583 15003 3198 14% 35 3268041 64185 89%
c B 35.92 451 54 5 585 15008 3203 14% 35 3268041 64185 89%
c - 37.57 452 62 6 616 15821 3652 13% 34 3268041 64185 89%
c W 39.59 452 51 6 616 21010 7525  9% 29 3268041 64185 89%
c - 41.40 452 53 7 634 21104 4970  9% 29 3268041 64185 89%
c - 43.38 452 47 8 2168 27138 3121  8% 31 3268041 64185 89%
c F 43.46 452 47 8 2363 28012 3390  8% 32 3268041 64185 89%
c } 47.70 452 45 8 2463 31003 5103  9% 32 3268041 64185 89%
c [ 47.70 452 960 8 2463 31003 5103 38% 53 3268041 64185 89%
c - 49.73 453 769 9 2464 33927 5384 32% 57 3268041 64185 89%
c s 49.93 453 751 9 2464 34266 5657 32% 58 3268041 64185 89%
c s 56.88 453 751 9 2464 34266 5654 32% 58 3268041 64185 89%
c ^ 57.64 453 751 9 2464 34266 5654 32% 58 3268041 64185 89%
c B 57.89 453 666 9 2466 36013 7126 28% 57 3268041 64185 89%
c - 60.99 455 647 10 2469 41469 7975 26% 77 3268041 64185 89%
c W 63.67 455 566 10 2470 45014 10773 24% 82 3268041 64185 89%
c - 66.19 455 485 11 2471 49767 8649 21% 84 3268041 64185 89%
c O 70.75 455 423 11 2472 55016 12715 19% 84 3268041 64185 89%
c 
c  seconds    reductions     redundant    irredundant
c          MB      restarts         trail         variables
c            level      conflicts       glue           remaining
c 
c - 72.78 454 378 12 2475 58819 9437 18% 79 3268041 64185 89%
c ] 73.40 454 338 12 2478 63003 12061 16% 74 3268041 64185 89%
c { 73.40 454 45 12 2478 63003 12061  9% 32 3268041 64185 89%
c B 73.77 454 47 12 2480 66017 14411  9% 32 3268041 64185 89%
c s 74.28 454 47 12 2982 68287 15073  9% 32 3268041 64185 89%
c s 81.03 454 47 12 2982 68287 14740  9% 32 3268041 64185 89%
c ^ 81.77 454 47 12 2982 68287 14740  9% 32 3268041 64185 89%
c - 83.51 453 47 13 2996 68628 8804  9% 32 3268041 64185 89%
c W 90.70 453 45 13 3662 78019 13021  9% 33 3268041 64185 89%
c - 92.67 453 47 14 3834 79190 7118  9% 34 3268041 64185 89%
c - 95.31 453 45 15 4456 90505 7717  9% 35 3268041 64185 89%
c # 95.38 453 45 15 4464 91025 7995  9% 35 3268041 64185 89%
c - 97.98 453 43 16 4484 102573 9410  9% 34 3268041 64185 89%
c B 101.94 453 42 16 4484 105026 10834  9% 34 3268041 64185 89%
c s 103.64 453 44 16 5218 113648 11558  9% 35 3268041 64185 89%
c s 111.06 453 44 16 5218 113648 10736  9% 35 3268041 64185 89%
c ^ 111.87 453 44 16 5218 113648 10736  9% 35 3268041 64185 89%
c - 113.65 453 44 17 5299 115396 7213  9% 35 3268041 64185 89%
c W 117.59 453 43 17 5459 120028 9218  9% 35 3268041 64185 89%
c } 118.39 453 43 17 5678 127005 12392  9% 35 3268041 64185 89%
c 
c  seconds     reductions       redundant    irredundant
c           MB      restarts           trail         variables
c             level      conflicts         glue           remaining
c 
c [ 118.39 453 338 17 5678 127005 12392 16% 74 3268041 64185 89%
c - 119.99 453 323 18 5678 128973 8734 16% 72 3268041 64185 89%
c B 120.90 453 276 18 5683 136029 13544 14% 67 3268041 64185 89%
c - 128.40 457 766 19 5686 143307 13693 18% 82 3268041 64185 89%
c W 136.42 457 729 19 5687 153030 21605 21% 89 3268041 64185 89%
c - 139.15 460 817 20 5687 158392 15401 21% 90 3268041 64185 89%
c s 142.10 460 897 20 5690 170351 23095 21% 95 3268041 64185 89%
c s 149.36 460 897 20 5690 170351 23087 21% 95 3268041 64185 89%
c ^ 150.20 460 897 20 5690 170351 23087 21% 95 3268041 64185 89%
c I 150.38 460 888 20 5690 171038 23608 20% 95 3268041 64185 89%
c - 153.01 459 1198 21 5693 174234 16212 21% 95 3268041 64185 89%
c B 159.43 459 955 21 5701 190039 28213 18% 88 3268041 64185 89%
c - 160.97 457 945 22 5701 190829 16792 18% 87 3268041 64185 89%
c - 165.40 457 757 23 5708 208177 18024 15% 80 3268041 64185 89%
c W 170.77 457 740 23 5709 210040 19396 15% 80 3268041 64185 89%
c - 179.38 456 611 24 5717 226279 19403 14% 73 3268041 64185 89%
c O 180.10 456 580 24 5717 231042 23128 13% 71 3268041 64185 89%
c s 181.01 456 531 24 5718 238393 27154 12% 67 3268041 64185 89%
c s 188.50 456 531 24 5718 238393 25627 12% 67 3268041 64185 89%
c - 191.75 454 490 25 5718 245137 16722 12% 64 3268041 64185 89%
c 
c  seconds     reductions       redundant    irredundant
c           MB      restarts           trail         variables
c             level      conflicts         glue           remaining
c 
c B 192.74 454 450 25 5719 253043 22362 11% 61 3268041 64185 89%
c ] 193.81 454 1059 25 5719 255006 24077 12% 68 3268041 64185 89%
c { 193.81 454 43 25 5719 255006 24077  9% 35 3268041 64185 89%
c - 196.46 457 44 26 5843 264749 18560  9% 35 3268041 64185 89%
c F 202.07 457 43 26 5923 276047 24846  8% 35 3268041 64185 89%
c - 204.65 454 42 27 5934 285116 17557  8% 35 3268041 64185 89%
c B 206.51 454 42 27 5993 300055 27448  8% 35 3268041 64185 89%
c - 208.98 455 43 28 6124 306238 18828  8% 35 3268041 64185 89%
c W 217.95 455 45 28 6302 325061 33026  8% 35 3268041 64185 89%
c - 219.82 456 46 29 6346 328112 21519  8% 35 3268041 64185 89%
c - 227.38 455 44 30 6388 350741 20131  8% 35 3268041 64185 89%
c # 227.42 455 44 30 6388 351062 20310  8% 35 3268041 64185 89%
c - 231.45 455 43 31 6437 374123 21583  8% 34 3268041 64185 89%
c B 231.87 455 43 31 6437 378064 24278  8% 34 3268041 64185 89%
c - 239.37 454 42 32 7554 398260 17583  8% 35 3268041 64185 89%
c W 247.98 454 41 32 7752 406065 21286  8% 35 3268041 64185 89%
c - 251.56 455 41 33 7940 423151 18768  8% 35 3268041 64185 89%
c F 252.91 455 40 33 7947 435066 25603  8% 34 3268041 64185 89%
c - 255.76 455 40 34 7956 448797 22653  8% 33 3268041 64185 89%
c B 261.95 455 39 34 7999 465068 33845  8% 33 3268041 64185 89%
c 
c  seconds    reductions        redundant    irredundant
c           MB      restarts           trail         variables
c            level       conflicts         glue           remaining
c 
c - 264.79 455 40 35 10112 475197 20828  8% 33 3268041 64185 89%
c W 275.24 455 39 35 12098 496072 28683  8% 34 3268041 64185 89%
c - 277.63 454 40 36 12642 502351 16014  8% 34 3268041 64185 89%
c } 278.84 454 40 36 13122 511007 20001  8% 35 3268041 64185 89%
c [ 278.84 454 1059 36 13122 511007 20001 12% 68 3268041 64185 89%
c W 294.43 454 958 36 13122 528073 31755 12% 65 3268041 64185 89%
c - 296.47 456 938 37 13122 530262 21715 12% 65 3268041 64185 89%
c - 302.39 458 799 38 13135 558925 26281 12% 62 3268041 64185 89%
c I 302.71 458 782 38 13136 561076 27811 12% 61 3268041 64185 89%
c - 311.76 467 1914 39 13147 588343 30654 16% 77 3268041 64185 89%
c B 313.28 467 1806 39 13151 595082 35869 16% 78 3268041 64185 89%
c - 325.13 468 3810 40 13153 618517 32376 20% 89 3268041 64185 89%
c W 339.49 468 4293 40 13159 630083 42115 22% 93 3268041 64185 89%
c - 344.49 465 3554 41 13168 649444 33820 21% 92 3268041 64185 89%
c s 344.74 465 3554 41 13168 649444 33371 21% 92 3268041 64185 89%
c w 348.71 465 3554 41 13168 649444 33358 21% 92 3268041 64185 89%
c O 352.99 465 3202 41 13175 666085 46587 21% 90 3268041 64185 89%
c - 361.33 461 2750 42 13183 681124 34890 19% 84 3268041 64185 89%
c B 364.79 461 2208 42 13184 703087 49411 17% 76 3268041 64185 89%
c - 368.62 460 2505 43 13185 713558 33673 19% 77 3268041 64185 89%
c 
c  seconds      reductions        redundant    irredundant
c           MB        restarts           trail         variables
c             level        conflicts         glue           remaining
c 
c W 386.73 460 2078 43 13186 741089 53692 23% 80 3268041 64185 89%
c - 389.13 462 1973 44 13186 746746 32947 23% 78 3268041 64185 89%
c I 398.34 462 1438 44 13186 780090 58607 20% 69 3268041 64185 89%
c - 400.57 462 1663 45 13186 780688 35107 21% 76 3268041 64185 89%
c - 436.45 538 8641 46 13193 815387 38991 30% 237 3268041 64185 89%
c B 437.56 538 8251 46 13196 820091 42681 29% 230 3268041 64185 89%
c - 445.92 464 6110 47 13209 850840 37791 24% 188 3268041 64185 89%
c W 467.55 464 5528 47 13215 861092 45602 23% 177 3268041 64185 89%
c - 477.28 469 5772 48 13217 887045 39746 24% 162 3268041 64185 89%
c O 481.10 469 5043 48 13227 903094 52847 24% 149 3268041 64185 89%
c - 486.19 463 4107 49 13235 924005 39908 21% 130 3268041 64185 89%
c B 490.38 463 3309 49 13247 946095 55789 19% 113 3268041 64185 89%
c - 502.74 468 3516 50 13248 961719 42414 21% 120 3268041 64185 89%
c W 525.11 468 2692 50 13249 990097 64276 21% 110 3268041 64185 89%
c - 528.43 466 3168 51 13249 1000188 41700 24% 106 3268041 64185 89%
c ] 534.01 466 2988 51 13262 1023007 59466 25% 106 3268041 64185 89%
c { 534.01 466 40 51 13262 1023007 59466  8% 35 3268041 64185 89%
c # 535.60 466 40 51 13545 1035101 65630  8% 35 3268041 64185 89%
c - 537.66 464 40 52 13549 1039411 38619  8% 35 3268041 64185 89%
c - 547.93 457 39 53 13672 1079390 33929  8% 35 3268041 64185 89%
c 
c  seconds    reductions         redundant    irredundant
c           MB      restarts            trail         variables
c            level        conflicts         glue           remaining
c 
c B 548.15 457 39 53 13672 1081103 34773  8% 35 3268041 64185 89%
c - 555.82 459 41 54 14110 1120122 39301  8% 35 3268041 64185 89%
c s 556.08 459 41 54 14110 1120122 39236  8% 35 3268041 64185 89%
c w 560.29 459 41 54 14110 1120122 39223  8% 35 3268041 64185 89%
c W 579.71 459 47 54 14300 1128105 45485  8% 35 3268041 64185 89%
c - 589.41 458 46 55 14732 1161608 36837  8% 35 3268041 64185 89%
c F 591.06 458 45 55 14833 1176106 44289  8% 35 3268041 64185 89%
c - 595.73 458 43 56 14902 1203849 37165  8% 34 3268041 64185 89%
c B 598.46 458 41 56 14966 1225107 52164  8% 34 3268041 64185 89%
c } 599.94 458 41 56 15387 1237929 58627  8% 34 3268041 64185 89%
c ? 599.94 458 41 56 15387 1237929 58627  8% 34 3268041 64185 89%
c 
c --- [ result ] -------------------------------------------------------------
c 
c UNKNOWN
c 
c --- [ run-time profiling ] -------------------------------------------------
c 
c process time taken by individual solving procedures
c (percentage relative to process time for solving)
c 
c       463.14   77.50% search
c       228.28   38.20% stable
c       134.50   22.50% simplify
c       124.02   20.75% walk
c       110.81   18.54% unstable
c        32.74    5.48% ternary
c        22.20    3.72% elim
c        22.11    3.70% vivify
c        17.58    2.94% probe
c         5.06    0.85% subsume
c         2.31    0.39% parse
c         0.04    0.01% lucky
c   =================================
c       597.64   99.62% solve
c 
c last line shows process time for solving
c (percentage relative to total process time)
c 
c --- [ statistics ] ---------------------------------------------------------
c 
c chronological:            220253        17.79 %  of conflicts
c conflicts:               1237929      2071.37    per second
c decisions:               2244500      3755.62    per second
c eliminated:                 6252         8.64 %  of all variables
c fixed:                      1923         2.66 %  of all variables
c learned:                 1224780        98.94 %  per conflict
c learned_lits:          180570400       100.00 %  learned literals
c minimized:                     0         0.00 %  learned literals
c shrunken:               62188116        34.44 %  learned literals
c minishrunken:            5647172         3.13 %  learned literals
c propagations:          472204226         0.79 M  per second
c reduced:                  789036        63.74 %  per conflict
c rephased:                     49     25263.86    interval
c restarts:                  15387        80.45    interval
c stabilizing:                   5        55.09 %  of conflicts
c subsumed:                 373981         3.60 %  of all clauses
c strengthened:              15987         0.15 %  of all clauses
c vivified:                     48         0.00 %  of all clauses
c walked:                       15     82528.60    interval
c weakened:                 670291         2.73    average size
c 
c seconds are measured in process time for solving
c 
c --- [ resources ] ----------------------------------------------------------
c 
c total process time since initialization:       599.94    seconds
c total real time since initialization:          600.00    seconds
c maximum resident set size of process:          634.05    MB
c 
c --- [ shutting down ] ------------------------------------------------------
c 
c exit 0
